282
750
599	1
598	1
595	1
594	1
592	2
590	1
586	1
585	1
584	1
583	1
581	2
580	1
578	1
577	2
576	1
575	2
571	1
570	2
569	2
566	1
565	1
564	1
561	2
560	1
559	2
558	1
555	1
551	1
549	1
545	1
544	1
539	1
537	2
535	1
534	1
532	1
531	2
528	2
525	2
522	1
519	1
517	1
516	1
514	1
512	1
509	1
508	3
506	1
505	1
500	1
499	1
498	1
497	2
495	1
493	1
492	2
485	3
483	2
482	2
481	1
480	1
479	2
474	1
472	3
469	3
467	1
464	2
463	1
460	1
457	2
456	1
455	1
454	1
453	1
451	2
450	1
449	3
445	3
444	1
442	1
441	1
440	1
439	1
438	1
436	1
432	1
431	1
430	1
429	1
427	4
426	1
425	2
424	2
423	3
422	4
420	2
417	1
416	1
415	1
413	1
412	2
409	2
407	1
405	2
403	1
400	1
398	1
397	1
396	1
395	1
394	2
392	2
389	1
386	1
385	1
384	1
383	1
382	2
381	1
380	2
379	1
378	2
372	1
369	1
368	2
367	1
366	2
365	1
363	1
362	1
360	2
359	2
358	1
357	1
356	2
354	1
352	1
351	4
350	2
349	1
343	1
342	1
341	1
340	1
339	1
336	2
331	2
330	1
329	1
328	1
326	1
323	1
322	2
319	1
318	1
316	1
315	1
314	1
313	1
309	1
308	1
306	1
305	1
303	1
301	2
299	1
298	1
297	2
295	1
294	1
290	1
288	2
284	1
283	1
282	1
280	1
273	1
271	1
269	1
268	1
267	1
261	3
260	1
255	2
251	2
249	1
248	3
247	1
246	1
245	4
243	2
242	2
241	2
240	1
238	1
237	1
236	1
234	2
232	2
231	2
228	1
227	2
226	1
225	1
224	1
223	2
222	3
221	2
220	1
218	1
216	1
214	1
213	1
212	1
211	1
208	2
207	1
205	2
203	2
202	1
201	1
199	2
196	1
189	1
188	3
186	1
182	1
181	2
179	2
177	1
175	1
172	1
170	4
167	1
164	1
163	1
161	1
158	1
157	1
156	2
155	1
154	2
149	1
147	1
146	1
145	1
142	2
140	2
139	1
138	3
137	2
136	1
134	2
133	2
131	2
129	1
128	1
126	1
125	1
124	1
122	1
118	1
113	1
112	1
110	2
109	3
105	2
99	1
98	1
97	1
95	2
92	2
90	2
89	1
88	1
87	1
86	3
85	2
80	1
79	2
78	1
75	1
